8
0 10 15 20 18 22 25 30
10 0 12 18 16 20 24 28
15 12 0 10 14 18 22 26
20 18 10 0 8 12 16 20
18 16 14 8 0 6 10 14
22 20 18 12 6 0 8 12
25 24 22 16 10 8 0 6
30 28 26 20 14 12 6 0
0 0 200 0
1 5 80 5
2 10 90 4
3 15 100 6
4 25 110 5
5 35 120 4
6 45 130 5
7 55 140 6
